(set-logic QF_S)
(declare-fun var0 () String)
(declare-fun var1 () String)
(declare-fun var2 () String)
(declare-fun var3 () Int)
(declare-fun var4 () Int)
(declare-fun var5 () Int)
(declare-fun var6 () Bool)
(declare-fun var7 () Bool)
(declare-fun var8 () Bool)
(assert (str.suffixof (str.replace var1 var2 var0) (str.replace var2 var1 var1)))
(assert (str.prefixof (str.replace var0 var1 var1) (str.replace var0 var0 "kaC*&)qlg`")))
(assert (<= (str.len var2) (str.len var1)))
(assert (str.suffixof "pzzA8{ohH:" var1))
(check-sat)